# Objective value = 6.2116899725202311e+03
I_0_0 1932
I_0_1 2.4530000187010314e+03
I_0_2 2.1180000000455047e+03
I_0_3 2.9080000000455047e+03
I_1_0 55
I_1_1 3.0198411979472049e-06
I_1_2 55
I_1_3 0
I_2_0 126
I_2_1 6.3000003458827670e+01
I_2_2 1.2599999654090919e+02
I_2_3 6.2999996540909194e+01
I_3_0 83
I_3_1 8.2999964065962445e+01
I_3_2 83
I_3_3 0
I_4_0 95
I_4_1 5.2160893419088080e-06
I_4_2 95
I_4_3 0
I_5_0 104
I_5_1 1.0399999340238080e+02
I_5_2 5.2000006598145511e+01
I_5_3 6.59814550801935e-06
I_6_0 22
I_6_1 11
I_6_2 22
I_6_3 1.0999999999999991e+01
I_7_0 142
I_7_1 142
I_7_2 7.0999999999999844e+01
I_7_3 0
I_8_0 116
I_8_1 5.8000003184033496e+01
I_8_2 1.1599999681544026e+02
I_8_3 5.7999996815440255e+01
I_9_0 68
I_9_1 34
I_9_2 68
I_9_3 3.3999999999999964e+01
I_10_0 126
I_10_1 126
I_10_2 63
I_10_3 0
I_11_0 36
I_11_1 1.4812252824292216e-06
I_11_2 36
I_11_3 0
I_12_0 83
I_12_1 3.4150471789340386e-06
I_12_2 83
I_12_3 0
I_13_0 10
I_13_1 4.0555612166315314e-06
I_13_2 10
I_13_3 0
I_14_0 30
I_14_1 0
I_14_2 30
I_14_3 0
I_15_0 46
I_15_1 0
I_15_2 46
I_15_3 0
q_1_0_0 0
q_1_0_1 1.0999997815919158e+02
q_1_0_2 0
q_1_1_0 3.0198411979472049e-06
q_1_1_1 1.8820967217216132e-05
q_1_1_2 0
q_2_0_0 0
q_2_0_1 0
q_2_0_2 0
q_2_1_0 3.4588276688447885e-06
q_2_1_1 1.2599999308181837e+02
q_2_1_2 0
q_3_0_0 8.2999959509273864e+01
q_3_0_1 8.3000035934037555e+01
q_3_0_2 0
q_3_1_0 4.5566885816598394e-06
q_3_1_1 0
q_3_1_2 0
q_4_0_0 0
q_4_0_1 1.8999999478391067e+02
q_4_0_2 0
q_4_1_0 5.2160893419088080e-06
q_4_1_1 0
q_4_1_2 0
q_5_0_0 51.9999934023808
q_5_0_1 1.3196291016038702e-05
q_5_0_2 0
q_5_1_0 0
q_5_1_1 0
q_5_1_2 0
q_6_0_0 0
q_6_0_1 0
q_6_0_2 0
q_6_1_0 0
q_6_1_1 22
q_6_1_2 0
q_7_0_0 71
q_7_0_1 0
q_7_0_2 0
q_7_1_0 0
q_7_1_1 0
q_7_1_2 0
q_8_0_0 0
q_8_0_1 1.1599997389911722e+02
q_8_0_2 0
q_8_1_0 3.1840334929548516e-06
q_8_1_1 1.9731763233110655e-05
q_8_1_2 0
q_9_0_0 0
q_9_0_1 6.7999993327826758e+01
q_9_0_2 0
q_9_1_0 0
q_9_1_1 6.6721732423502544e-06
q_9_1_2 0
q_10_0_0 63
q_10_0_1 0
q_10_0_2 0
q_10_1_0 0
q_10_1_1 0
q_10_1_2 0
q_11_0_0 1.4812252824292216e-06
q_11_0_1 7.6546686504919137e-06
q_11_0_2 0
q_11_1_0 0
q_11_1_1 7.1999990864106067e+01
q_11_1_2 0
q_12_0_0 3.4150471789340386e-06
q_12_0_1 1.7648263831104849e-05
q_12_0_2 0
q_12_1_0 0
q_12_1_1 165.999978936689
q_12_1_2 0
q_13_0_0 4.0555612166315314e-06
q_13_0_1 0
q_13_0_2 0
q_13_1_0 0
q_13_1_1 1.9999995944438783e+01
q_13_1_2 0
q_14_0_0 0
q_14_0_1 0
q_14_0_2 0
q_14_1_0 0
q_14_1_1 60
q_14_1_2 0
q_15_0_0 0
q_15_0_1 0
q_15_0_2 0
q_15_1_0 0
q_15_1_1 92
q_15_1_2 0
y_0_0_0 1
y_0_0_1 1
y_0_0_2 0
y_0_1_0 5.4350648028171107e-08
y_0_1_1 1
y_0_1_2 0
y_1_0_0 0
y_1_0_1 9.9999982991677461e-01
y_1_0_2 0
y_1_1_0 5.4906203599040088e-08
y_1_1_1 1.7010140718198841e-07
y_1_1_2 0
y_2_0_0 0
y_2_0_1 0
y_2_0_2 0
y_2_1_0 5.4902026489599819e-08
y_2_1_1 9.9999994547841187e-01
y_2_1_2 0
y_3_0_0 9.9999951215992611e-01
y_3_0_1 1
y_3_0_2 0
y_3_1_0 5.4899862429636622e-08
y_3_1_1 0
y_3_1_2 0
y_4_0_0 0
y_4_0_1 1
y_4_0_2 0
y_4_1_0 5.4906203599040088e-08
y_4_1_1 0
y_4_1_2 0
y_5_0_0 9.9999987312270777e-01
y_5_0_1 1.2683933669267982e-07
y_5_0_2 0
y_5_1_0 0
y_5_1_1 0
y_5_1_2 0
y_6_0_0 0
y_6_0_1 0
y_6_0_2 0
y_6_1_0 0
y_6_1_1 1
y_6_1_2 0
y_7_0_0 1
y_7_0_1 0
y_7_0_2 0
y_7_1_0 0
y_7_1_1 0
y_7_1_2 0
y_8_0_0 0
y_8_0_1 9.9999977540905660e-01
y_8_0_2 0
y_8_1_0 5.4897129188876750e-08
y_8_1_1 1.7005830373371255e-07
y_8_1_2 0
y_9_0_0 0
y_9_0_1 9.9999990190431520e-01
y_9_0_2 0
y_9_1_0 0
y_9_1_1 9.8046665328680210e-08
y_9_1_2 0
y_10_0_0 1
y_10_0_1 0
y_10_0_2 0
y_10_1_0 0
y_10_1_1 0
y_10_1_2 0
y_11_0_0 4.1145146734145044e-08
y_11_0_1 1.2647074910734741e-07
y_11_0_2 0
y_11_1_0 0
y_11_1_1 9.9999987311258420e-01
y_11_1_2 0
y_12_0_0 4.1145146734145044e-08
y_12_0_1 1.2647074913002817e-07
y_12_0_2 0
y_12_1_0 0
y_12_1_1 9.9999987349719954e-01
y_12_1_2 0
y_13_0_0 4.0555612166315316e-07
y_13_0_1 0
y_13_0_2 0
y_13_1_0 0
y_13_1_1 1
y_13_1_2 0
y_14_0_0 0
y_14_0_1 0
y_14_0_2 0
y_14_1_0 0
y_14_1_1 1
y_14_1_2 0
y_15_0_0 0
y_15_0_1 0
y_15_0_2 0
y_15_1_0 0
y_15_1_1 1
y_15_1_2 0
x_0_1_0_0 0
x_0_1_0_1 0
x_0_1_0_2 0
x_0_1_1_0 0
x_0_1_1_1 0
x_0_1_1_2 0
x_0_2_0_0 0
x_0_2_0_1 0
x_0_2_0_2 0
x_0_2_1_0 5.3786738269048441e-08
x_0_2_1_1 0
x_0_2_1_2 0
x_0_3_0_0 9.9999910665170377e-01
x_0_3_0_1 1
x_0_3_0_2 0
x_0_3_1_0 5.3803446676182668e-08
x_0_3_1_1 0
x_0_3_1_2 0
x_0_4_0_0 0
x_0_4_0_1 1
x_0_4_0_2 0
x_0_4_1_0 0
x_0_4_1_1 0
x_0_4_1_2 0
x_0_5_0_0 1.0000003189250068e+00
x_0_5_0_1 0
x_0_5_0_2 0
x_0_5_1_0 0
x_0_5_1_1 1.2611818490878506e-07
x_0_5_1_2 0
x_0_6_0_0 0
x_0_6_0_1 0
x_0_6_0_2 0
x_0_6_1_0 0
x_0_6_1_1 0
x_0_6_1_2 0
x_0_7_0_0 5.7342328957348406e-07
x_0_7_0_1 0
x_0_7_0_2 0
x_0_7_1_0 0
x_0_7_1_1 0
x_0_7_1_2 0
x_0_8_0_0 0
x_0_8_0_1 0
x_0_8_0_2 0
x_0_8_1_0 0
x_0_8_1_1 0
x_0_8_1_2 0
x_0_9_0_0 0
x_0_9_0_1 0
x_0_9_0_2 0
x_0_9_1_0 0
x_0_9_1_1 4.3213991319406926e-08
x_0_9_1_2 0
x_0_10_0_0 0
x_0_10_0_1 0
x_0_10_0_2 0
x_0_10_1_0 0
x_0_10_1_1 0
x_0_10_1_2 0
x_0_11_0_0 0
x_0_11_0_1 0
x_0_11_0_2 0
x_0_11_1_0 0
x_0_11_1_1 1
x_0_11_1_2 0
x_0_12_0_0 0
x_0_12_0_1 0
x_0_12_0_2 0
x_0_12_1_0 0
x_0_12_1_1 0
x_0_12_1_2 0
x_0_13_0_0 0
x_0_13_0_1 0
x_0_13_0_2 0
x_0_13_1_0 0
x_0_13_1_1 0
x_0_13_1_2 0
x_0_14_0_0 0
x_0_14_0_1 0
x_0_14_0_2 0
x_0_14_1_0 0
x_0_14_1_1 9.9999982994294734e-01
x_0_14_1_2 0
x_0_15_0_0 0
x_0_15_0_1 0
x_0_15_0_2 0
x_0_15_1_0 0
x_0_15_1_1 0
x_0_15_1_2 0
x_1_2_0_0 0
x_1_2_0_1 0
x_1_2_0_2 0
x_1_2_1_0 0
x_1_2_1_1 0
x_1_2_1_2 0
x_1_3_0_0 0
x_1_3_0_1 9.9999982994126535e-01
x_1_3_0_2 0
x_1_3_1_0 0
x_1_3_1_1 0
x_1_3_1_2 0
x_1_4_0_0 0
x_1_4_0_1 0
x_1_4_0_2 0
x_1_4_1_0 5.3795092487928977e-08
x_1_4_1_1 0
x_1_4_1_2 0
x_1_5_0_0 0
x_1_5_0_1 0
x_1_5_0_2 0
x_1_5_1_0 0
x_1_5_1_1 0
x_1_5_1_2 0
x_1_6_0_0 0
x_1_6_0_1 0
x_1_6_0_2 0
x_1_6_1_0 0
x_1_6_1_1 5.41369728144959e-08
x_1_6_1_2 0
x_1_7_0_0 0
x_1_7_0_1 0
x_1_7_0_2 0
x_1_7_1_0 0
x_1_7_1_1 0
x_1_7_1_2 0
x_1_8_0_0 0
x_1_8_0_1 9.9999977581941435e-01
x_1_8_0_2 0
x_1_8_1_0 5.4906203599040088e-08
x_1_8_1_1 1.7010140718198841e-07
x_1_8_1_2 0
x_1_9_0_0 0
x_1_9_0_1 5.4121889199792216e-08
x_1_9_0_2 0
x_1_9_1_0 0
x_1_9_1_1 0
x_1_9_1_2 0
x_1_10_0_0 0
x_1_10_0_1 0
x_1_10_0_2 0
x_1_10_1_0 0
x_1_10_1_1 0
x_1_10_1_2 0
x_1_11_0_0 0
x_1_11_0_1 0
x_1_11_0_2 0
x_1_11_1_0 0
x_1_11_1_1 0
x_1_11_1_2 0
x_1_12_0_0 0
x_1_12_0_1 0
x_1_12_0_2 0
x_1_12_1_0 0
x_1_12_1_1 0
x_1_12_1_2 0
x_1_13_0_0 0
x_1_13_0_1 0
x_1_13_0_2 0
x_1_13_1_0 0
x_1_13_1_1 0
x_1_13_1_2 0
x_1_14_0_0 0
x_1_14_0_1 0
x_1_14_0_2 0
x_1_14_1_0 0
x_1_14_1_1 0
x_1_14_1_2 0
x_1_15_0_0 0
x_1_15_0_1 0
x_1_15_0_2 0
x_1_15_1_0 0
x_1_15_1_1 1.1519520359826174e-07
x_1_15_1_2 0
x_2_3_0_0 0
x_2_3_0_1 0
x_2_3_0_2 0
x_2_3_1_0 0
x_2_3_1_1 0
x_2_3_1_2 0
x_2_4_0_0 0
x_2_4_0_1 0
x_2_4_0_2 0
x_2_4_1_0 0
x_2_4_1_1 0
x_2_4_1_2 0
x_2_5_0_0 0
x_2_5_0_1 0
x_2_5_0_2 0
x_2_5_1_0 0
x_2_5_1_1 0
x_2_5_1_2 0
x_2_6_0_0 0
x_2_6_0_1 0
x_2_6_0_2 0
x_2_6_1_0 0
x_2_6_1_1 9.9999994519611346e-01
x_2_6_1_2 0
x_2_7_0_0 0
x_2_7_0_1 0
x_2_7_0_2 0
x_2_7_1_0 0
x_2_7_1_1 0
x_2_7_1_2 0
x_2_8_0_0 0
x_2_8_0_1 0
x_2_8_0_2 0
x_2_8_1_0 5.4906203599040088e-08
x_2_8_1_1 7.1878895472334193e-08
x_2_8_1_2 0
x_2_9_0_0 0
x_2_9_0_1 0
x_2_9_0_2 0
x_2_9_1_0 0
x_2_9_1_1 0
x_2_9_1_2 0
x_2_10_0_0 0
x_2_10_0_1 0
x_2_10_0_2 0
x_2_10_1_0 0
x_2_10_1_1 0
x_2_10_1_2 0
x_2_11_0_0 0
x_2_11_0_1 0
x_2_11_0_2 0
x_2_11_1_0 0
x_2_11_1_1 0
x_2_11_1_2 0
x_2_12_0_0 0
x_2_12_0_1 0
x_2_12_0_2 0
x_2_12_1_0 0
x_2_12_1_1 0
x_2_12_1_2 0
x_2_13_0_0 0
x_2_13_0_1 0
x_2_13_0_2 0
x_2_13_1_0 0
x_2_13_1_1 0
x_2_13_1_2 0
x_2_14_0_0 0
x_2_14_0_1 0
x_2_14_0_2 0
x_2_14_1_0 0
x_2_14_1_1 4.3213991072538948e-08
x_2_14_1_2 0
x_2_15_0_0 0
x_2_15_0_1 0
x_2_15_0_2 0
x_2_15_1_0 0
x_2_15_1_1 9.9999983020907235e-01
x_2_15_1_2 0
x_3_4_0_0 0
x_3_4_0_1 0
x_3_4_0_2 0
x_3_4_1_0 5.4906203599040088e-08
x_3_4_1_1 0
x_3_4_1_2 0
x_3_5_0_0 0
x_3_5_0_1 0
x_3_5_0_2 0
x_3_5_1_0 0
x_3_5_1_1 0
x_3_5_1_2 0
x_3_6_0_0 0
x_3_6_0_1 0
x_3_6_0_2 0
x_3_6_1_0 0
x_3_6_1_1 0
x_3_6_1_2 0
x_3_7_0_0 -4.1092492312496659e-08
x_3_7_0_1 0
x_3_7_0_2 0
x_3_7_1_0 0
x_3_7_1_1 0
x_3_7_1_2 0
x_3_8_0_0 0
x_3_8_0_1 0
x_3_8_0_2 0
x_3_8_1_0 0
x_3_8_1_1 0
x_3_8_1_2 0
x_3_9_0_0 0
x_3_9_0_1 1.7010140707728439e-07
x_3_9_0_2 0
x_3_9_1_0 0
x_3_9_1_1 0
x_3_9_1_2 0
x_3_10_0_0 1
x_3_10_0_1 0
x_3_10_0_2 0
x_3_10_1_0 0
x_3_10_1_1 0
x_3_10_1_2 0
x_3_11_0_0 0
x_3_11_0_1 0
x_3_11_0_2 0
x_3_11_1_0 0
x_3_11_1_1 0
x_3_11_1_2 0
x_3_12_0_0 0
x_3_12_0_1 0
x_3_12_0_2 0
x_3_12_1_0 0
x_3_12_1_1 0
x_3_12_1_2 0
x_3_13_0_0 -4.1107473518606385e-08
x_3_13_0_1 0
x_3_13_0_2 0
x_3_13_1_0 0
x_3_13_1_1 0
x_3_13_1_2 0
x_3_14_0_0 0
x_3_14_0_1 0
x_3_14_0_2 0
x_3_14_1_0 0
x_3_14_1_1 0
x_3_14_1_2 0
x_3_15_0_0 0
x_3_15_0_1 0
x_3_15_0_2 0
x_3_15_1_0 0
x_3_15_1_1 0
x_3_15_1_2 0
x_4_5_0_0 0
x_4_5_0_1 0
x_4_5_0_2 0
x_4_5_1_0 0
x_4_5_1_1 0
x_4_5_1_2 0
x_4_6_0_0 0
x_4_6_0_1 0
x_4_6_0_2 0
x_4_6_1_0 0
x_4_6_1_1 0
x_4_6_1_2 0
x_4_7_0_0 0
x_4_7_0_1 0
x_4_7_0_2 0
x_4_7_1_0 0
x_4_7_1_1 0
x_4_7_1_2 0
x_4_8_0_0 0
x_4_8_0_1 9.7293170059117716e-08
x_4_8_0_2 0
x_4_8_1_0 0
x_4_8_1_1 0
x_4_8_1_2 0
x_4_9_0_0 0
x_4_9_0_1 9.9999990197075384e-01
x_4_9_0_2 0
x_4_9_1_0 0
x_4_9_1_1 0
x_4_9_1_2 0
x_4_10_0_0 0
x_4_10_0_1 0
x_4_10_0_2 0
x_4_10_1_0 0
x_4_10_1_1 0
x_4_10_1_2 0
x_4_11_0_0 0
x_4_11_0_1 0
x_4_11_0_2 0
x_4_11_1_0 0
x_4_11_1_1 0
x_4_11_1_2 0
x_4_12_0_0 0
x_4_12_0_1 0
x_4_12_0_2 0
x_4_12_1_0 0
x_4_12_1_1 0
x_4_12_1_2 0
x_4_13_0_0 0
x_4_13_0_1 0
x_4_13_0_2 0
x_4_13_1_0 0
x_4_13_1_1 0
x_4_13_1_2 0
x_4_14_0_0 0
x_4_14_0_1 0
x_4_14_0_2 0
x_4_14_1_0 0
x_4_14_1_1 0
x_4_14_1_2 0
x_4_15_0_0 0
x_4_15_0_1 0
x_4_15_0_2 0
x_4_15_1_0 0
x_4_15_1_1 0
x_4_15_1_2 0
x_5_6_0_0 0
x_5_6_0_1 0
x_5_6_0_2 0
x_5_6_1_0 0
x_5_6_1_1 0
x_5_6_1_2 0
x_5_7_0_0 9.9999942648512030e-01
x_5_7_0_1 0
x_5_7_0_2 0
x_5_7_1_0 0
x_5_7_1_1 0
x_5_7_1_2 0
x_5_8_0_0 0
x_5_8_0_1 0
x_5_8_0_2 0
x_5_8_1_0 0
x_5_8_1_1 0
x_5_8_1_2 0
x_5_9_0_0 0
x_5_9_0_1 0
x_5_9_0_2 0
x_5_9_1_0 0
x_5_9_1_1 0
x_5_9_1_2 0
x_5_10_0_0 0
x_5_10_0_1 0
x_5_10_0_2 0
x_5_10_1_0 0
x_5_10_1_1 0
x_5_10_1_2 0
x_5_11_0_0 0
x_5_11_0_1 1.2595792423265074e-07
x_5_11_0_2 0
x_5_11_1_0 0
x_5_11_1_1 -1.2682616466771828e-07
x_5_11_1_2 0
x_5_12_0_0 0
x_5_12_0_1 1.2688741581937559e-07
x_5_12_0_2 0
x_5_12_1_0 0
x_5_12_1_1 0
x_5_12_1_2 0
x_5_13_0_0 0
x_5_13_0_1 0
x_5_13_0_2 0
x_5_13_1_0 0
x_5_13_1_1 0
x_5_13_1_2 0
x_5_14_0_0 0
x_5_14_0_1 0
x_5_14_0_2 0
x_5_14_1_0 0
x_5_14_1_1 0
x_5_14_1_2 0
x_5_15_0_0 0
x_5_15_0_1 0
x_5_15_0_2 0
x_5_15_1_0 0
x_5_15_1_1 0
x_5_15_1_2 0
x_6_7_0_0 0
x_6_7_0_1 0
x_6_7_0_2 0
x_6_7_1_0 0
x_6_7_1_1 0
x_6_7_1_2 0
x_6_8_0_0 0
x_6_8_0_1 0
x_6_8_0_2 0
x_6_8_1_0 0
x_6_8_1_1 0
x_6_8_1_2 0
x_6_9_0_0 0
x_6_9_0_1 0
x_6_9_0_2 0
x_6_9_1_0 0
x_6_9_1_1 0
x_6_9_1_2 0
x_6_10_0_0 0
x_6_10_0_1 0
x_6_10_0_2 0
x_6_10_1_0 0
x_6_10_1_1 0
x_6_10_1_2 0
x_6_11_0_0 0
x_6_11_0_1 0
x_6_11_0_2 0
x_6_11_1_0 0
x_6_11_1_1 0
x_6_11_1_2 0
x_6_12_0_0 0
x_6_12_0_1 0
x_6_12_0_2 0
x_6_12_1_0 0
x_6_12_1_1 0
x_6_12_1_2 0
x_6_13_0_0 0
x_6_13_0_1 0
x_6_13_0_2 0
x_6_13_1_0 0
x_6_13_1_1 1
x_6_13_1_2 0
x_6_14_0_0 0
x_6_14_0_1 0
x_6_14_0_2 0
x_6_14_1_0 0
x_6_14_1_1 0
x_6_14_1_2 0
x_6_15_0_0 0
x_6_15_0_1 0
x_6_15_0_2 0
x_6_15_1_0 0
x_6_15_1_1 0
x_6_15_1_2 0
x_7_8_0_0 0
x_7_8_0_1 0
x_7_8_0_2 0
x_7_8_1_0 0
x_7_8_1_1 0
x_7_8_1_2 0
x_7_9_0_0 0
x_7_9_0_1 0
x_7_9_0_2 0
x_7_9_1_0 0
x_7_9_1_1 0
x_7_9_1_2 0
x_7_10_0_0 9.9999955338614821e-01
x_7_10_0_1 0
x_7_10_0_2 0
x_7_10_1_0 0
x_7_10_1_1 0
x_7_10_1_2 0
x_7_11_0_0 4.0236055825054134e-08
x_7_11_0_1 0
x_7_11_0_2 0
x_7_11_1_0 0
x_7_11_1_1 0
x_7_11_1_2 0
x_7_12_0_0 0
x_7_12_0_1 0
x_7_12_0_2 0
x_7_12_1_0 0
x_7_12_1_1 0
x_7_12_1_2 0
x_7_13_0_0 4.4656187826142061e-07
x_7_13_0_1 0
x_7_13_0_2 0
x_7_13_1_0 0
x_7_13_1_1 0
x_7_13_1_2 0
x_7_14_0_0 0
x_7_14_0_1 0
x_7_14_0_2 0
x_7_14_1_0 0
x_7_14_1_1 0
x_7_14_1_2 0
x_7_15_0_0 0
x_7_15_0_1 0
x_7_15_0_2 0
x_7_15_1_0 0
x_7_15_1_1 0
x_7_15_1_2 0
x_8_9_0_0 0
x_8_9_0_1 0.999999676921397
x_8_9_0_2 0
x_8_9_1_0 0
x_8_9_1_1 9.7367074043871719e-08
x_8_9_1_2 0
x_8_10_0_0 0
x_8_10_0_1 0
x_8_10_0_2 0
x_8_10_1_0 0
x_8_10_1_1 0
x_8_10_1_2 0
x_8_11_0_0 0
x_8_11_0_1 0
x_8_11_0_2 0
x_8_11_1_0 0
x_8_11_1_1 0
x_8_11_1_2 0
x_8_12_0_0 0
x_8_12_0_1 0
x_8_12_0_2 0
x_8_12_1_0 0
x_8_12_1_1 0
x_8_12_1_2 0
x_8_13_0_0 0
x_8_13_0_1 0
x_8_13_0_2 0
x_8_13_1_0 0
x_8_13_1_1 0
x_8_13_1_2 0
x_8_14_0_0 0
x_8_14_0_1 0
x_8_14_0_2 0
x_8_14_1_0 0
x_8_14_1_1 0
x_8_14_1_2 0
x_8_15_0_0 0
x_8_15_0_1 0
x_8_15_0_2 0
x_8_15_1_0 0
x_8_15_1_1 0
x_8_15_1_2 0
x_9_10_0_0 0
x_9_10_0_1 0
x_9_10_0_2 0
x_9_10_1_0 0
x_9_10_1_1 0
x_9_10_1_2 0
x_9_11_0_0 0
x_9_11_0_1 0
x_9_11_0_2 0
x_9_11_1_0 0
x_9_11_1_1 0
x_9_11_1_2 0
x_9_12_0_0 0
x_9_12_0_1 0
x_9_12_0_2 0
x_9_12_1_0 0
x_9_12_1_1 0
x_9_12_1_2 0
x_9_13_0_0 0
x_9_13_0_1 0
x_9_13_0_2 0
x_9_13_1_0 0
x_9_13_1_1 0
x_9_13_1_2 0
x_9_14_0_0 0
x_9_14_0_1 0
x_9_14_0_2 0
x_9_14_1_0 0
x_9_14_1_1 0
x_9_14_1_2 0
x_9_15_0_0 0
x_9_15_0_1 0
x_9_15_0_2 0
x_9_15_1_0 0
x_9_15_1_1 5.4743034524851e-08
x_9_15_1_2 0
x_10_11_0_0 0
x_10_11_0_1 0
x_10_11_0_2 0
x_10_11_1_0 0
x_10_11_1_1 0
x_10_11_1_2 0
x_10_12_0_0 4.0236055825054134e-08
x_10_12_0_1 0
x_10_12_0_2 0
x_10_12_1_0 0
x_10_12_1_1 0
x_10_12_1_2 0
x_10_13_0_0 4.0526668497070830e-07
x_10_13_0_1 0
x_10_13_0_2 0
x_10_13_1_0 0
x_10_13_1_1 0
x_10_13_1_2 0
x_10_14_0_0 0
x_10_14_0_1 0
x_10_14_0_2 0
x_10_14_1_0 0
x_10_14_1_1 0
x_10_14_1_2 0
x_10_15_0_0 0
x_10_15_0_1 0
x_10_15_0_2 0
x_10_15_1_0 0
x_10_15_1_1 0
x_10_15_1_2 0
x_11_12_0_0 4.1145146734145044e-08
x_11_12_0_1 1.2615024064871072e-07
x_11_12_0_2 0
x_11_12_1_0 0
x_11_12_1_1 9.9999987311258420e-01
x_11_12_1_2 0
x_11_13_0_0 0
x_11_13_0_1 0
x_11_13_0_2 0
x_11_13_1_0 0
x_11_13_1_1 0
x_11_13_1_2 0
x_11_14_0_0 0
x_11_14_0_1 0
x_11_14_0_2 0
x_11_14_1_0 0
x_11_14_1_1 0
x_11_14_1_2 0
x_11_15_0_0 0
x_11_15_0_1 0
x_11_15_0_2 0
x_11_15_1_0 0
x_11_15_1_1 0
x_11_15_1_2 0
x_12_13_0_0 0
x_12_13_0_1 0
x_12_13_0_2 0
x_12_13_1_0 0
x_12_13_1_1 9.9999987315525674e-01
x_12_13_1_2 0
x_12_14_0_0 0
x_12_14_0_1 0
x_12_14_0_2 0
x_12_14_1_0 0
x_12_14_1_1 0
x_12_14_1_2 0
x_12_15_0_0 0
x_12_15_0_1 0
x_12_15_0_2 0
x_12_15_1_0 0
x_12_15_1_1 0
x_12_15_1_2 0
x_13_14_0_0 0
x_13_14_0_1 0
x_13_14_0_2 0
x_13_14_1_0 0
x_13_14_1_1 1.2607551252265959e-07
x_13_14_1_2 0
x_13_15_0_0 0
x_13_15_0_1 0
x_13_15_0_2 0
x_13_15_1_0 0
x_13_15_1_1 0
x_13_15_1_2 0
x_14_15_0_0 0
x_14_15_0_1 0
x_14_15_0_2 0
x_14_15_1_0 0
x_14_15_1_1 1
x_14_15_1_2 0
